s td 237 2 288
b 1 1 127
b 2 1 139
b 3 139 140
b 4 2
b 5 3 120
b 6 119 120
b 7 120
b 8 4 65
b 9 5
b 10 6
b 11 7 242
b 12 8 141
b 13 9
b 14 12 100
b 15 99 100
b 16 11 99
b 17 11 78
b 18 77 78
b 19 10 77
b 20 187 188
b 21 10 188
b 22 207 208
b 23 10 207
b 24 10 226
b 25 13 161
b 26 14 221
b 27 221 222
b 28 16 102
b 29 101 102
b 30 15 101
b 31 15 252
b 32 251 252
b 33 252
b 34 109 110
b 35 17 109
b 36 17 216
b 37 215 216
b 38 216
b 39 18
b 40 19 178
b 41 19 261
b 42 28 94
b 43 28 288
b 44 133 134
b 45 20 134
b 46 20 287
b 47 287 288
b 48 288
b 49 21 85
b 50 85 86
b 51 22
b 52 23 152
b 53 151 152
b 54 152
b 55 24 144
b 56 165 166
b 57 25 166
b 58 25 181
b 59 26 253
b 60 27 93
b 61 27 254
b 62 253 254
b 63 254
b 64 29 224
b 65 29 230
b 66 30 217
b 67 31 210
b 68 31 281
b 69 281 282
b 70 32 73
b 71 33
b 72 34 105
b 73 105 106
b 74 35
b 75 36 145
b 76 36 190
b 77 37 200
b 78 38 204
b 79 39 285
b 80 40 74
b 81 183 184
b 82 40 183
b 83 40 286
b 84 41
b 85 42 171
b 86 43 147
b 87 147 148
b 88 44 146
b 89 45 202
b 90 46 244
b 91 47
b 92 48 82
b 93 81 82
b 94 82
b 95 49 168
b 96 167 168
b 97 168
b 98 50 257
b 99 257 258
b 100 51 103
b 101 52
b 102 53 108
b 103 53 237
b 104 237 238
b 105 54 76
b 106 55 88
b 107 55 159
b 108 56
b 109 57 273
b 110 58 205
b 111 58 274
b 112 59
b 113 60 95
b 114 60 246
b 115 61
b 116 62 264
b 117 63
b 118 64 220
b 119 219 220
b 120 220
b 121 66
b 122 67
b 123 68
b 124 69 70
b 125 71 72
b 126 75
b 127 79
b 128 80
b 129 83
b 130 84
b 131 87
b 132 89
b 133 90
b 134 91
b 135 92
b 136 96
b 137 97 98
b 138 104
b 139 107
b 140 111
b 141 112
b 142 113 114
b 143 115 116
b 144 117
b 145 118
b 146 121
b 147 122
b 148 123 124
b 149 125
b 150 126
b 151 128
b 152 129
b 153 130
b 154 131
b 155 132
b 156 135
b 157 136
b 158 137
b 159 138
b 160 142
b 161 143
b 162 149
b 163 150
b 164 153
b 165 154
b 166 155
b 167 156
b 168 157 158
b 169 160
b 170 162
b 171 163
b 172 164
b 173 169 170
b 174 172
b 175 173
b 176 174
b 177 175
b 178 176
b 179 177
b 180 179
b 181 180
b 182 182
b 183 185 186
b 184 189
b 185 191
b 186 192
b 187 193
b 188 194
b 189 195
b 190 196
b 191 197 198
b 192 199
b 193 201
b 194 203
b 195 206
b 196 209
b 197 211
b 198 212
b 199 213 214
b 200 218
b 201 223
b 202 225
b 203 227 228
b 204 229
b 205 231
b 206 232
b 207 233
b 208 234
b 209 235
b 210 236
b 211 239
b 212 240
b 213 241
b 214 243
b 215 245
b 216 247
b 217 248
b 218 249 250
b 219 255 256
b 220 259
b 221 260
b 222 262
b 223 263
b 224 265
b 225 266
b 226 267 268
b 227 269
b 228 270
b 229 271
b 230 272
b 231 275
b 232 276
b 233 277 278
b 234 279
b 235 280
b 236 283
b 237 284
1 2
1 4
1 5
1 8
1 9
1 10
1 11
1 12
1 13
1 14
1 25
1 26
1 28
1 34
1 39
1 40
1 42
1 49
1 51
1 52
1 55
1 56
1 59
1 64
1 66
1 67
1 70
1 71
1 72
1 74
1 75
1 77
1 78
1 79
1 80
1 84
1 85
1 86
1 88
1 89
1 90
1 91
1 92
1 95
1 98
1 100
1 101
1 102
1 105
1 106
1 108
1 109
1 110
1 112
1 113
1 115
1 116
1 117
1 118
1 121
1 122
1 123
1 124
1 125
1 126
1 127
1 128
1 129
1 130
1 131
1 132
1 133
1 134
1 135
1 136
1 137
1 138
1 139
1 140
1 141
1 142
1 143
1 144
1 145
1 146
1 147
1 148
1 149
1 150
1 151
1 152
1 153
1 154
1 155
1 156
1 157
1 158
1 159
1 160
1 161
1 162
1 163
1 164
1 165
1 166
1 167
1 168
1 169
1 170
1 171
1 172
1 173
1 174
1 175
1 176
1 177
1 178
1 179
1 180
1 181
1 182
1 183
1 184
1 185
1 186
1 187
1 188
1 189
1 190
1 191
1 192
1 193
1 194
1 195
1 196
1 197
1 198
1 199
1 200
1 201
1 202
1 203
1 204
1 205
1 206
1 207
1 208
1 209
1 210
1 211
1 212
1 213
1 214
1 215
1 216
1 217
1 218
1 219
1 220
1 221
1 222
1 223
1 224
1 225
1 226
1 227
1 228
1 229
1 230
1 231
1 232
1 233
1 234
1 235
1 236
1 237
2 3
5 7
6 7
14 15
15 16
16 17
17 18
18 19
19 24
20 21
21 24
22 23
23 24
26 27
28 29
29 30
30 31
31 33
32 33
34 35
35 36
36 38
37 38
40 41
42 43
43 48
44 45
45 46
46 47
47 48
49 50
52 54
53 54
56 57
57 58
59 62
60 61
61 63
62 63
64 65
67 68
68 69
72 73
75 76
80 83
81 82
82 83
86 87
92 94
93 94
95 97
96 97
98 99
102 103
103 104
106 107
110 111
113 114
118 120
119 120
